<number of tasks>
50

<cycle time>
1000

<order strength>
0.599


<task times>
1 175
2 129
3 32
4 144
5 160
6 211
7 141
8 190
9 266
10 91
11 289
12 89
13 42
14 117
15 116
16 191
17 71
18 136
19 60
20 206
21 142
22 133
23 96
24 47
25 105
26 21
27 236
28 85
29 200
30 114
31 100
32 250
33 99
34 153
35 221
36 194
37 150
38 34
39 273
40 228
41 169
42 217
43 179
44 81
45 239
46 49
47 56
48 226
49 222
50 180

<precedence relations>
1,18
2,31
3,5
3,7
3,8
3,9
4,6
4,7
4,15
4,16
4,17
5,18
6,18
7,31
8,28
9,10
9,11
9,12
9,13
9,14
9,15
9,16
9,17
10,18
11,18
12,31
13,31
14,28
15,28
16,19
16,20
16,21
16,27
17,19
17,21
18,22
18,23
18,24
18,25
18,26
18,27
18,28
18,29
18,30
19,31
20,28
21,29
21,30
22,45
22,48
22,49
22,50
23,31
23,37
24,31
24,37
25,31
25,37
26,31
26,37
27,31
28,31
28,32
28,33
28,34
28,35
28,36
28,37
29,31
29,37
30,31
30,37
31,38
31,39
31,40
31,41
32,42
32,43
32,45
33,43
33,47
34,45
34,50
35,42
36,44
36,45
36,46
37,42
37,43
37,44
37,45
38,42
38,45
39,42
39,45
40,43
40,44
40,50
41,43
42,46
43,48
43,49
46,47
47,48
47,49
47,50

<end>
